solution status: optimal solution found
objective value:                     179051.190693943
d11(0,0)                                            1 	(obj:0)
d11(1,1)                                            1 	(obj:0)
d11(1,2)                                            1 	(obj:0)
d11(2,3)                                            1 	(obj:0)
d11(2,5)                                            1 	(obj:0)
d11(3,7)                                            1 	(obj:0)
d11(3,8)                                            1 	(obj:0)
d11(3,9)                                            1 	(obj:0)
d11(3,10)                                           1 	(obj:0)
d11(3,11)                                           1 	(obj:0)
d11(3,13)                                           1 	(obj:0)
d11(3,14)                                           1 	(obj:0)
d11(4,15)                                           1 	(obj:0)
d11(4,16)                                           1 	(obj:0)
d11(4,17)                                           1 	(obj:0)
d11(4,18)                                           1 	(obj:0)
d11(4,19)                                           1 	(obj:0)
d11(4,20)                                           1 	(obj:0)
d11(4,21)                                           1 	(obj:0)
d11(4,22)                                           1 	(obj:0)
d11(4,23)                                           1 	(obj:0)
d11(4,24)                                           1 	(obj:0)
d11(4,25)                                           1 	(obj:0)
d11(4,26)                                           1 	(obj:0)
d11(4,27)                                           1 	(obj:0)
d11(4,28)                                           1 	(obj:0)
d11(4,29)                                           1 	(obj:0)
d21(3,7)                                            1 	(obj:0)
d21(4,15)                                           1 	(obj:0)
d21(4,16)                                           1 	(obj:0)
d21(4,17)                                           1 	(obj:0)
d21(4,19)                                           1 	(obj:0)
d21(4,23)                                           1 	(obj:0)
STE(1,1)                             5816.24999888216 	(obj:0)
STE(0,0)                                         9450 	(obj:0)
STE(1,2)                             7474.49989777098 	(obj:0)
STE(2,3)                             3402.00009999329 	(obj:0)
STE(2,4)                             5060.24999888216 	(obj:0)
STE(2,5)                             5060.24999888211 	(obj:0)
STE(2,6)                             6718.49989777098 	(obj:0)
STE(3,7)                             987.750201104473 	(obj:0)
STE(3,8)                             2646.00009999329 	(obj:0)
STE(3,9)                             2646.00009999335 	(obj:0)
STE(3,10)                            4304.24999888885 	(obj:0)
STE(3,11)                            2646.00009999329 	(obj:0)
STE(3,12)                            4304.24999888211 	(obj:0)
STE(3,13)                            4304.24999888216 	(obj:0)
STE(3,14)                            5962.49989777098 	(obj:0)
STE(4,15)                           -1426.49969778437 	(obj:0)
STE(4,16)                            231.750201104473 	(obj:0)
STE(4,17)                            231.750201104445 	(obj:0)
STE(4,18)                            1890.00009999326 	(obj:0)
STE(4,19)                            231.750201104501 	(obj:0)
STE(4,20)                            1890.00009999335 	(obj:0)
STE(4,21)                                   1890.0001 	(obj:0)
STE(4,22)                            3548.24999888885 	(obj:0)
STE(4,23)                            231.750201104443 	(obj:0)
STE(4,24)                                   1890.0001 	(obj:0)
STE(4,25)                            1890.00009999326 	(obj:0)
STE(4,26)                            3548.24999888211 	(obj:0)
STE(4,27)                            1890.00009999332 	(obj:0)
STE(4,28)                            3548.24999888216 	(obj:0)
STE(4,29)                            3548.24999888214 	(obj:0)
STE(4,30)                            5206.49989777098 	(obj:0)
y1(3,10)                         -6.01343344897032e-009 	(obj:0)
y1(3,11)                             1492.42490899994 	(obj:0)
y1(3,13)                             1492.42490899994 	(obj:0)
y1(4,15)                             1492.42490899996 	(obj:0)
y1(4,17)                             1492.42490899996 	(obj:0)
y1(4,19)                             1492.42490899996 	(obj:0)
y1(4,21)                             1492.42490899996 	(obj:0)
y1(4,23)                             1492.42490899996 	(obj:0)
y1(4,24)                         -6.03991793468595e-009 	(obj:0)
y1(4,25)                             1492.42490899996 	(obj:0)
y1(4,27)                             1492.42490899996 	(obj:0)
y1(4,29)                             1492.42490899996 	(obj:0)
AVE(1)                               3265.91696791192 	(obj:0)
AVE(2)                               3332.74178563731 	(obj:0)
AVE(3)                               3444.11697932125 	(obj:0)
AVE(4)                               3399.56511093778 	(obj:0)
WG(1)                                3265.91696791192 	(obj:10)
WG(2)                                3332.74178563731 	(obj:10)
WG(3)                                3444.11697932115 	(obj:10)
WG(4)                                3399.56511093778 	(obj:10)
BG(1)                                2050.32460454328 	(obj:10)
BG(2)                                863.550713342282 	(obj:10)
BG(3)                                752.175519658414 	(obj:10)
BG(4)                                796.727388041812 	(obj:10)
y1(1,1)                              2589.97500100605 	(obj:0)
y1(1,2)                              1097.55009200612 	(obj:0)
y1(2,3)                              1492.42490899999 	(obj:0)
y1(2,5)                              1492.42490899999 	(obj:0)
y1(3,7)                              1492.42490899994 	(obj:0)
y1(3,9)                              1492.42490899994 	(obj:0)
